c Lingeling SAT Solver
c 
c Version azf 92032848c138b2f33629ad24394d60a3787a1046
c 
c Copyright (C) 2010-2014 Armin Biere JKU Linz Austria.
c All rights reserved.
c 
c released Don Mai 22 22:08:00 CEST 2014
c compiled Mon Oct  6 05:55:43 PDT 2014
c 
c gcc (Ubuntu 4.8.2-19ubuntu1) 4.8.2
c -Wall -O3 -DNDBLSCR -DNLGLOG -DNDEBUG -DNCHKSOL -DNLGLPICOSAT -DNLGLDRUPLIG
c -DNLGLYALSAT
c Linux ubuntu 3.13.0-32-generic x86_64
c 
c reading input file benchmark-sat/translations/gc-games120-8.cnf
c no embedded options
c found 'p cnf 960 13688' header
c read 960 variables, 13688 clauses, 28096 literals in 0.00 seconds
c 
c  seconds         irredundant          redundant clauses agility   height
c          variables clauses conflicts large ternary binary    glue         MB
c 
c S    0.0     960    13688         0       0      0     0   0  0.0   0.0    0
c 
c  seconds         irredundant          redundant clauses agility   height
c          variables clauses conflicts large ternary binary    glue         MB
c 
s UNSATISFIABLE
c
c    0.167  28% simplifying
c    0.430  72% search
c ==================================
c    0.597 100% all
c 
c 23513 decisions, 39388.5 decisions/sec
c 19726 conflicts, 33044.6 conflicts/sec
c 347830 propagations, 0.6 megaprops/sec
c 0.6 seconds, 4.0 MB
